/*********************************************
 * OPL 12.6.0.0 Data
 * Author: Adrian Rodriguez Bazaga, Pau Rodriguez Esmerats
 * Creation Date: 01/12/2017 at 05:00:19
 *********************************************/

nNurses=946;
maxConsec=2;
maxPresence=7;
maxHours=5;
minHours=1;
demand= [187 185 270 285 185 270 285 193 190 116 14 29 21 37 27 29 20 19 13 8 169 311 148 250  ];
